# Solution for model FSG
# Objective value = 3.1646887841800822e+02
x_0_1 1
x_0_2 1
x_0_3 1
x_0_4 0
x_0_5 0
x_0_6 0
x_0_7 0
x_0_8 0
x_1_2 0
x_1_3 0
x_1_4 0
x_1_5 1
x_1_6 0
x_1_7 0
x_1_8 0
x_2_1 0
x_2_3 0
x_2_4 0
x_2_5 0
x_2_6 1
x_2_7 0
x_2_8 0
x_3_1 0
x_3_2 0
x_3_4 1
x_3_5 0
x_3_6 0
x_3_7 0
x_3_8 0
x_4_1 0
x_4_2 0
x_4_3 0
x_4_5 0
x_4_6 0
x_4_7 0
x_4_8 1
x_5_1 0
x_5_2 0
x_5_3 0
x_5_4 0
x_5_6 0
x_5_7 1
x_5_8 0
U_1_1 0
U_1_2 0
U_1_3 1
U_2_1 0
U_2_2 0
U_2_3 1
U_3_1 0
U_3_2 0
U_3_3 1
U_4_1 0
U_4_2 0
U_4_3 1
U_5_1 0
U_5_2 0
U_5_3 1
U_6_1 0
U_6_2 0
U_6_3 1
U_7_1 0
U_7_2 0
U_7_3 1
U_8_1 0
U_8_2 0
U_8_3 1
TBar_0 0
TBar_1 30
TBar_2 30
TBar_3 30
TBar_4 3.8614557446555217e+01
TBar_5 3.5545827260202032e+01
TBar_6 3.3788310969284332e+01
TBar_7 4.0266092083281350e+01
TBar_8 43.3565085217984
y_0_1_1 0
y_0_1_2 0
y_0_1_3 0
y_0_1_4 0
y_0_1_5 0
y_0_2_1 0
y_0_2_2 0
y_0_2_3 0
y_0_2_4 0
y_0_2_5 0
y_0_3_1 0
y_0_3_2 0
y_0_3_3 0
y_0_3_4 0
y_0_3_5 0
y_0_4_1 0
y_0_4_2 0
y_0_4_3 0
y_0_4_4 0
y_0_4_5 0
y_0_5_1 0
y_0_5_2 0
y_0_5_3 0
y_0_5_4 0
y_0_5_5 0
y_0_6_1 0
y_0_6_2 0
y_0_6_3 0
y_0_6_4 0
y_0_6_5 0
y_0_7_1 0
y_0_7_2 0
y_0_7_3 0
y_0_7_4 0
y_0_7_5 0
y_0_8_1 0
y_0_8_2 0
y_0_8_3 0
y_0_8_4 0
y_0_8_5 0
y_1_2_1 0
y_1_2_2 0
y_1_2_3 0
y_1_2_4 0
y_1_2_5 0
y_1_3_1 0
y_1_3_2 0
y_1_3_3 0
y_1_3_4 0
y_1_3_5 0
y_1_4_1 0
y_1_4_2 0
y_1_4_3 0
y_1_4_4 0
y_1_4_5 0
y_1_5_1 0
y_1_5_2 0
y_1_5_3 0
y_1_5_4 0
y_1_5_5 0
y_1_6_1 0
y_1_6_2 0
y_1_6_3 0
y_1_6_4 0
y_1_6_5 0
y_1_7_1 0
y_1_7_2 0
y_1_7_3 0
y_1_7_4 0
y_1_7_5 0
y_1_8_1 0
y_1_8_2 0
y_1_8_3 0
y_1_8_4 0
y_1_8_5 0
y_2_1_1 0
y_2_1_2 0
y_2_1_3 0
y_2_1_4 0
y_2_1_5 0
y_2_3_1 0
y_2_3_2 0
y_2_3_3 0
y_2_3_4 0
y_2_3_5 0
y_2_4_1 0
y_2_4_2 0
y_2_4_3 0
y_2_4_4 0
y_2_4_5 0
y_2_5_1 0
y_2_5_2 0
y_2_5_3 0
y_2_5_4 0
y_2_5_5 0
y_2_6_1 0
y_2_6_2 0
y_2_6_3 0
y_2_6_4 0
y_2_6_5 0
y_2_7_1 0
y_2_7_2 0
y_2_7_3 0
y_2_7_4 0
y_2_7_5 0
y_2_8_1 0
y_2_8_2 0
y_2_8_3 0
y_2_8_4 0
y_2_8_5 0
y_3_1_1 0
y_3_1_2 0
y_3_1_3 0
y_3_1_4 0
y_3_1_5 0
y_3_2_1 0
y_3_2_2 0
y_3_2_3 0
y_3_2_4 0
y_3_2_5 0
y_3_4_1 0
y_3_4_2 0
y_3_4_3 0
y_3_4_4 0
y_3_4_5 0
y_3_5_1 0
y_3_5_2 0
y_3_5_3 0
y_3_5_4 0
y_3_5_5 0
y_3_6_1 0
y_3_6_2 0
y_3_6_3 0
y_3_6_4 0
y_3_6_5 0
y_3_7_1 0
y_3_7_2 0
y_3_7_3 0
y_3_7_4 0
y_3_7_5 0
y_3_8_1 0
y_3_8_2 0
y_3_8_3 0
y_3_8_4 0
y_3_8_5 0
y_4_1_1 0
y_4_1_2 0
y_4_1_3 0
y_4_1_4 0
y_4_1_5 0
y_4_2_1 0
y_4_2_2 0
y_4_2_3 0
y_4_2_4 0
y_4_2_5 0
y_4_3_1 0
y_4_3_2 0
y_4_3_3 0
y_4_3_4 0
y_4_3_5 0
y_4_5_1 0
y_4_5_2 0
y_4_5_3 0
y_4_5_4 0
y_4_5_5 0
y_4_6_1 0
y_4_6_2 0
y_4_6_3 0
y_4_6_4 0
y_4_6_5 0
y_4_7_1 0
y_4_7_2 0
y_4_7_3 0
y_4_7_4 0
y_4_7_5 0
y_4_8_1 0
y_4_8_2 0
y_4_8_3 0
y_4_8_4 0
y_4_8_5 0
y_5_1_1 0
y_5_1_2 0
y_5_1_3 0
y_5_1_4 0
y_5_1_5 0
y_5_2_1 0
y_5_2_2 0
y_5_2_3 0
y_5_2_4 0
y_5_2_5 0
y_5_3_1 0
y_5_3_2 0
y_5_3_3 0
y_5_3_4 0
y_5_3_5 0
y_5_4_1 0
y_5_4_2 0
y_5_4_3 0
y_5_4_4 0
y_5_4_5 0
y_5_6_1 0
y_5_6_2 0
y_5_6_3 0
y_5_6_4 0
y_5_6_5 0
y_5_7_1 0
y_5_7_2 0
y_5_7_3 0
y_5_7_4 0
y_5_7_5 0
y_5_8_1 0
y_5_8_2 0
y_5_8_3 0
y_5_8_4 0
y_5_8_5 0
Q_0_1 0
Q_0_2 0
Q_0_3 0
Q_0_4 0
Q_0_5 0
Q_1_1 1.2697000000000028e+02
Q_1_2 127.65
Q_1_3 1.3685500000000030e+02
Q_1_4 1.2725500000000029e+02
Q_1_5 1.2348000000000029e+02
Q_2_1 47.0449999999997
Q_2_2 4.5224999999999710e+01
Q_2_3 46.65
Q_2_4 5.1524999999999707e+01
Q_2_5 4.9264999999999709e+01
Q_3_1 8.5069999999999126e+01
Q_3_2 8.8539999999999125e+01
Q_3_3 7.4909999999999130e+01
Q_3_4 8.2969999999999118e+01
Q_3_5 8.2744999999999123e+01
Q_4_1 1.6095999999999964e+02
Q_4_2 1.6422999999999962e+02
Q_4_3 1.5510999999999962e+02
Q_4_4 1.6322499999999962e+02
Q_4_5 1.5830999999999963e+02
Q_5_1 2.2869500000000065e+02
Q_5_2 2.2377000000000066e+02
Q_5_3 2.3512000000000066e+02
Q_5_4 224.2
Q_5_5 2.2704500000000064e+02
Q_6_1 47.0449999999997
Q_6_2 4.5224999999999710e+01
Q_6_3 46.65
Q_6_4 5.1524999999999707e+01
Q_6_5 4.9264999999999709e+01
Q_7_1 2.2869500000000065e+02
Q_7_2 2.2377000000000066e+02
Q_7_3 2.3512000000000066e+02
Q_7_4 224.2
Q_7_5 2.2704500000000064e+02
Q_8_1 1.6095999999999964e+02
Q_8_2 1.6422999999999962e+02
Q_8_3 1.5510999999999962e+02
Q_8_4 1.6322499999999962e+02
Q_8_5 1.5830999999999963e+02
R_6_1 0
R_6_2 0
R_6_3 0
R_6_4 0
R_6_5 0
R_7_1 2.8694999933242798e+01
R_7_2 2.3769999980926514e+01
R_7_3 3.5119999885559082e+01
R_7_4 24.2
R_7_5 2.7045000000000641e+01
R_8_1 0
R_8_2 0
R_8_3 0
R_8_4 0
R_8_5 0
L_1_1 0
L_1_2 0
L_1_3 0
L_1_4 0
L_1_5 0
L_2_1 0
L_2_2 0
L_2_3 0
L_2_4 0
L_2_5 0
L_3_1 0
L_3_2 0
L_3_3 0
L_3_4 0
L_3_5 0
L_4_1 0
L_4_2 0
L_4_3 0
L_4_4 0
L_4_5 0
L_5_1 0
L_5_2 0
L_5_3 0
L_5_4 0
L_5_5 0
rho_1_1 0
rho_1_2 0
rho_1_3 0
rho_1_4 0
rho_1_5 0
rho_2_1 0
rho_2_2 0
rho_2_3 0
rho_2_4 0
rho_2_5 0
rho_3_1 0
rho_3_2 0
rho_3_3 0
rho_3_4 0
rho_3_5 0
rho_4_1 0
rho_4_2 0
rho_4_3 0
rho_4_4 0
rho_4_5 0
rho_5_1 1
rho_5_2 1
rho_5_3 1
rho_5_4 1
rho_5_5 1
lambd_1_1 1
lambd_1_2 1
lambd_1_3 1
lambd_1_4 1
lambd_1_5 1
lambd_2_1 1
lambd_2_2 1
lambd_2_3 1
lambd_2_4 1
lambd_2_5 1
lambd_3_1 1
lambd_3_2 1
lambd_3_3 1
lambd_3_4 1
lambd_3_5 1
lambd_4_1 1
lambd_4_2 1
lambd_4_3 1
lambd_4_4 1
lambd_4_5 1
lambd_5_1 1
lambd_5_2 1
lambd_5_3 1
lambd_5_4 1
lambd_5_5 1
alpha_1_1 0
alpha_1_2 0
alpha_1_3 0
alpha_1_4 0
alpha_1_5 0
alpha_2_1 0
alpha_2_2 0
alpha_2_3 0
alpha_2_4 0
alpha_2_5 0
alpha_3_1 0
alpha_3_2 0
alpha_3_3 0
alpha_3_4 0
alpha_3_5 0
alpha_4_1 0
alpha_4_2 0
alpha_4_3 0
alpha_4_4 0
alpha_4_5 0
alpha_5_1 0
alpha_5_2 0
alpha_5_3 0
alpha_5_4 0
alpha_5_5 0
